single_objective/SL-DABL/OP/problems/op/OPLib-master/solutions/ea4op/gen1/d198-gen1-50.sol
NAME : d198
TYPE : OP
DIMENSION : 198
COST_LIMIT : 7890
ROUTE_NODES : 123
ROUTE_SCORE : 123
ROUTE_COST : 7863
NODE_SEQUENCE_SECTION
1
16
17
23
22
24
25
26
27
28
30
32
31
37
36
33
34
39
47
52
46
53
62
65
81
76
77
78
64
50
48
49
63
79
80
91
92
105
114
113
112
106
107
111
110
109
108
169
125
126
130
133
136
135
141
143
145
146
149
152
162
161
153
148
147
142
140
134
132
131
124
120
119
118
117
116
115
104
103
102
93
101
94
95
96
90
89
97
98
88
82
83
74
66
61
54
45
44
55
60
67
70
73
72
68
59
56
43
42
57
58
69
71
13
12
11
10
9
8
5
6
7
2
-1
DEPOT_SECTION
1
-1
EOF
